
50
108137

3288 1676
9833 637
9593 2397
9184 3739
7900 9393
8751 5450
5 6249
6270 3482
2477 1702
7305 5637
4324 7282
5601 851
5428 6494
5762 2100
8274 6900
9816 3554
3456 1476
8062 1403
8893 7922
3921 5403
1235 856
4974 9055
7647 2767
5242 2800
1845 27
7055 3002
3246 5599
8863 8979
1685 2989
5939 4977
3855 800
9850 6869
1387 3001
8802 3757
4177 2708
3719 8184
2082 9804
4946 1380
9294 4512
9994 1069
9396 7504
6113 9073
2361 1262
5073 6827
6498 3040
2960 4502
9870 5723
846 3843
2349 6514
2033 3268
